This is Ipopt version 3.10.0, running with linear solver ma27.

Number of nonzeros in equality constraint Jacobian...:        2
Number of nonzeros in inequality constraint Jacobian.:        4
Number of nonzeros in Lagrangian Hessian.............:        0

Total number of variables............................:        2
                     variables with only lower bounds:        0
                variables with lower and upper bounds:        2
                     variables with only upper bounds:        0
Total number of equality constraints.................:        1
Total number of inequality constraints...............:        2
        inequality constraints with only lower bounds:        0
   inequality constraints with lower and upper bounds:        0
        inequality constraints with only upper bounds:        2

iter    objective    inf_pr   inf_du lg(mu)  ||d||  lg(rg) alpha_du alpha_pr  ls
   0  9.6100000e+04 4.66e-01 3.00e+02   0.0 0.00e+00    -  0.00e+00 0.00e+00   0
   1  9.5494978e+04 4.63e-01 4.78e+03   2.0 3.55e+02    -  4.42e-01 4.54e-03f  1
   2  1.0389289e+05 2.70e-01 2.39e+05   1.8 1.84e+02    -  7.53e-03 3.82e-01h  1
   3  1.2773974e+05 2.76e-02 2.42e+02   2.3 1.12e+02    -  1.00e+00 1.00e+00h  1
   4  1.3083475e+05 1.34e-03 2.34e+01   0.9 6.79e+00    -  9.85e-01 9.75e-01h  1
   5  1.3059191e+05 2.31e-04 1.99e+01  -0.8 4.29e-01    -  9.97e-01 1.00e+00f  1
   6  1.3062359e+05 1.82e-05 6.03e-01  -2.3 5.39e-02    -  1.00e+00 9.94e-01h  1
   7  1.3062021e+05 2.15e-06 1.21e-05  -4.3 5.90e-03    -  1.00e+00 1.00e+00f  1

Number of Iterations....: 7

                                   (scaled)                 (unscaled)
Objective...............:   1.3062020749372535e+05    1.3062020749372535e+05
Dual infeasibility......:   1.2056907986652589e-05    1.2056907986652589e-05
Constraint violation....:   2.1480137386512702e-06    2.1480137386512702e-06
Complementarity.........:   4.9461842096518601e-05    4.9461842096518601e-05
Overall NLP error.......:   2.1480137386512702e-06    4.9461842096518601e-05


Number of objective function evaluations             = 8
Number of objective gradient evaluations             = 8
Number of equality constraint evaluations            = 8
Number of inequality constraint evaluations          = 8
Number of equality constraint Jacobian evaluations   = 8
Number of inequality constraint Jacobian evaluations = 8
Number of Lagrangian Hessian evaluations             = 0
Total CPU secs in IPOPT (w/o function evaluations)   =      0.009
Total CPU secs in NLP function evaluations           =      6.309

EXIT: Optimal Solution Found.
